JulietBench/Juliet_Based_Patch_Bench/linux/CWE-189-Numeric-Errors/CVE_2010_4162_cb4644cac4a2797afc847e6c92736664d4b0ea34/Resultbio_copy_user_iov_Snippet_patch1EQ.smt2
; benchmark generated from python API
(set-info :status unknown)
(declare-fun R () (_ BitVec 32))
(declare-fun rdi () (_ BitVec 64))
(assert
 (let (($x80 (= (_ bv4294967274 32) R)))
 (let ((?x10 (bvadd (_ bv35184372072562 64) rdi)))
 (let ((?x12 ((_ extract 63 13) ?x10)))
 (let ((?x13 (concat (_ bv0 13) ?x12)))
 (let (($x20 (bvult ?x13 (_ bv4294967293 64))))
 (let (($x82 (and $x20 $x80)))
 (let ((?x14 ((_ extract 44 13) ?x10)))
 (let ((?x22 (bvadd (_ bv3 32) ?x14)))
 (let (($x74 (= R ?x22)))
 (let (($x68 (bvuge ?x12 (_ bv4294967293 51))))
 (let (($x78 (and $x68 $x74)))
 (let (($x83 (or $x78 $x82)))
 (and $x74 $x83))))))))))))))
(check-sat)
